p cnf 615
-10 -192
-11 -195
-12 -198
-13 -201
-14 -204
-15 -207
-16 -210
-17 -213
-18 -216
-19 217
-20 218
-21 219
-22 220
-23 221
-24 -11
-24 -12
11 12 24
-25 -13
-25 -14
13 14 25
-26 -15
-26 -16
15 16 26
-27 -17
-27 -18
17 18 27
-28 -19
-28 -20
19 20 28
-29 -21
-29 -22
21 22 29
-30 24
-30 25
-24 -25 30
-31 26
-31 27
-26 -27 31
-32 28
-32 29
-28 -29 32
-33 30
-33 31
-30 -31 33
-34 -23
-34 32
23 -32 34
-35 33
-35 34
-33 -34 35
-36 -10
-36 11
10 -11 36
-37 10
-37 -11
-10 11 37
-38 -36
-38 -37
36 37 38
-39 10
-39 11
-10 -11 39
-40 -10
-40 -38
10 38 40
-41 10
-41 38
-10 -38 41
-42 -40
-42 -41
40 41 42
-43 10
-43 -38
-10 38 43
-44 -39
-44 -43
39 43 44
-45 -11
-45 12
11 -12 45
-46 11
-46 -12
-11 12 46
-47 -45
-47 -46
45 46 47
-48 11
-48 12
-11 -12 48
-49 44
-49 -47
-44 47 49
-50 -44
-50 47
44 -47 50
-51 -49
-51 -50
49 50 51
-52 -44
-52 -47
44 47 52
-53 -48
-53 -52
48 52 53
-54 -12
-54 13
12 -13 54
-55 12
-55 -13
-12 13 55
-56 -54
-56 -55
54 55 56
-57 12
-57 13
-12 -13 57
-58 53
-58 -56
-53 56 58
-59 -53
-59 56
53 -56 59
-60 -58
-60 -59
58 59 60
-61 -53
-61 -56
53 56 61
-62 -57
-62 -61
57 61 62
-63 -13
-63 14
13 -14 63
-64 13
-64 -14
-13 14 64
-65 -63
-65 -64
63 64 65
-66 13
-66 14
-13 -14 66
-67 62
-67 -65
-62 65 67
-68 -62
-68 65
62 -65 68
-69 -67
-69 -68
67 68 69
-70 -62
-70 -65
62 65 70
-71 -66
-71 -70
66 70 71
-72 -14
-72 15
14 -15 72
-73 14
-73 -15
-14 15 73
-74 -72
-74 -73
72 73 74
-75 14
-75 15
-14 -15 75
-76 71
-76 -74
-71 74 76
-77 -71
-77 74
71 -74 77
-78 -76
-78 -77
76 77 78
-79 -71
-79 -74
71 74 79
-80 -75
-80 -79
75 79 80
-81 -15
-81 16
15 -16 81
-82 15
-82 -16
-15 16 82
-83 -81
-83 -82
81 82 83
-84 15
-84 16
-15 -16 84
-85 80
-85 -83
-80 83 85
-86 -80
-86 83
80 -83 86
-87 -85
-87 -86
85 86 87
-88 -80
-88 -83
80 83 88
-89 -84
-89 -88
84 88 89
-90 -16
-90 17
16 -17 90
-91 16
-91 -17
-16 17 91
-92 -90
-92 -91
90 91 92
-93 16
-93 17
-16 -17 93
-94 89
-94 -92
-89 92 94
-95 -89
-95 92
89 -92 95
-96 -94
-96 -95
94 95 96
-97 -89
-97 -92
89 92 97
-98 -93
-98 -97
93 97 98
-99 -17
-99 18
17 -18 99
-100 17
-100 -18
-17 18 100
-101 -99
-101 -100
99 100 101
-102 17
-102 18
-17 -18 102
-103 98
-103 -101
-98 101 103
-104 -98
-104 101
98 -101 104
-105 -103
-105 -104
103 104 105
-106 -98
-106 -101
98 101 106
-107 -102
-107 -106
102 106 107
-108 -18
-108 19
18 -19 108
-109 18
-109 -19
-18 19 109
-110 -108
-110 -109
108 109 110
-111 18
-111 19
-18 -19 111
-112 107
-112 -110
-107 110 112
-113 -107
-113 110
107 -110 113
-114 -112
-114 -113
112 113 114
-115 -107
-115 -110
107 110 115
-116 -111
-116 -115
111 115 116
-117 -19
-117 20
19 -20 117
-118 19
-118 -20
-19 20 118
-119 -117
-119 -118
117 118 119
-120 19
-120 20
-19 -20 120
-121 116
-121 -119
-116 119 121
-122 -116
-122 119
116 -119 122
-123 -121
-123 -122
121 122 123
-124 -116
-124 -119
116 119 124
-125 -120
-125 -124
120 124 125
-126 -20
-126 21
20 -21 126
-127 20
-127 -21
-20 21 127
-128 -126
-128 -127
126 127 128
-129 20
-129 21
-20 -21 129
-130 125
-130 -128
-125 128 130
-131 -125
-131 128
125 -128 131
-132 -130
-132 -131
130 131 132
-133 -125
-133 -128
125 128 133
-134 -129
-134 -133
129 133 134
-135 -21
-135 22
21 -22 135
-136 21
-136 -22
-21 22 136
-137 -135
-137 -136
135 136 137
-138 21
-138 22
-21 -22 138
-139 134
-139 -137
-134 137 139
-140 -134
-140 137
134 -137 140
-141 -139
-141 -140
139 140 141
-142 -134
-142 -137
134 137 142
-143 -138
-143 -142
138 142 143
-144 -22
-144 23
22 -23 144
-145 22
-145 -23
-22 23 145
-146 -144
-146 -145
144 145 146
-147 22
-147 23
-22 -23 147
-148 143
-148 -146
-143 146 148
-149 -143
-149 146
143 -146 149
-150 -148
-150 -149
148 149 150
-151 -143
-151 -146
143 146 151
-152 -147
-152 -151
147 151 152
-153 10
-153 -42
-10 42 153
-154 -10
-154 12
10 -12 154
-155 -153
-155 -154
153 154 155
-156 10
-156 -51
-10 51 156
-157 -10
-157 13
10 -13 157
-158 -156
-158 -157
156 157 158
-159 10
-159 -60
-10 60 159
-160 -10
-160 14
10 -14 160
-161 -159
-161 -160
159 160 161
-162 10
-162 -69
-10 69 162
-163 -10
-163 15
10 -15 163
-164 -162
-164 -163
162 163 164
-165 10
-165 -78
-10 78 165
-166 -10
-166 16
10 -16 166
-167 -165
-167 -166
165 166 167
-168 10
-168 -87
-10 87 168
-169 -10
-169 17
10 -17 169
-170 -168
-170 -169
168 169 170
-171 10
-171 -96
-10 96 171
-172 -10
-172 18
10 -18 172
-173 -171
-173 -172
171 172 173
-174 10
-174 -105
-10 105 174
-175 -10
-175 19
10 -19 175
-176 -174
-176 -175
174 175 176
-177 10
-177 -114
-10 114 177
-178 -10
-178 20
10 -20 178
-179 -177
-179 -178
177 178 179
-180 10
-180 -123
-10 123 180
-181 -10
-181 21
10 -21 181
-182 -180
-182 -181
180 181 182
-183 10
-183 -132
-10 132 183
-184 -10
-184 22
10 -22 184
-185 -183
-185 -184
183 184 185
-186 10
-186 -141
-10 141 186
-187 -10
-187 23
10 -23 187
-188 -186
-188 -187
186 187 188
-189 10
-189 -150
-10 150 189
-190 1
-190 35
-1 -35 190
-191 -35
-191 36
35 -36 191
-192 -190
-192 -191
190 191 192
-193 2
-193 35
-2 -35 193
-194 -35
-194 -155
35 155 194
-195 -193
-195 -194
193 194 195
-196 3
-196 35
-3 -35 196
-197 -35
-197 -158
35 158 197
-198 -196
-198 -197
196 197 198
-199 4
-199 35
-4 -35 199
-200 -35
-200 -161
35 161 200
-201 -199
-201 -200
199 200 201
-202 5
-202 35
-5 -35 202
-203 -35
-203 -164
35 164 203
-204 -202
-204 -203
202 203 204
-205 6
-205 35
-6 -35 205
-206 -35
-206 -167
35 167 206
-207 -205
-207 -206
205 206 207
-208 7
-208 35
-7 -35 208
-209 -35
-209 -170
35 170 209
-210 -208
-210 -209
208 209 210
-211 8
-211 35
-8 -35 211
-212 -35
-212 -173
35 173 212
-213 -211
-213 -212
211 212 213
-214 9
-214 35
-9 -35 214
-215 -35
-215 -176
35 176 215
-216 -214
-216 -215
214 215 216
-217 -35
-217 -179
35 179 217
-218 -35
-218 -182
35 182 218
-219 -35
-219 -185
35 185 219
-220 -35
-220 -188
35 188 220
-221 -35
-221 189
35 -189 221
-222 -23
-222 152
23 -152 222
-223 10
-223 -222
-10 222 223
223
